g3 0 1 0	# problem d7n5R1R6d05d05
 5 6 1 0 1	# vars, constraints, objectives, ranges, eqns
 4 1	# nonlinear constraints, objectives
 0 0	# network constraints: nonlinear, linear
 5 5 5	# nonlinear vars in constraints, objectives, both
 0 0 0 1	# linear network variables; functions; arith, flags
 0 0 0 0 0	# discrete variables: binary, integer, nonlinear (b,c,o)
 27 5	# nonzeros in Jacobian, gradients
 0 0	# max name lengths: constraints, variables
 0 0 0 0 0	# common exprs: b,c,o,c1,o1
b
0 0.68 2.65
0 0.12 2.6
0 0.01 2.17
0 0.45 2.89
0 0.65 2.99
r
2 70.295
2 345.746
2 1261.42
2 2558.26
4 15.031
2 22.733
C0
o54
4
o2
o2
n5.94
v0
v3
o2
o2
n0.73
v1
v4
o2
o2
n4.5
v2
v3
o2
o2
n8.52
v2
v4
C1
o54
21
o16
o2
o2
n4.18
v0
v3
o2
o2
n0.77
v1
v4
o2
o2
n6.43
v2
v3
o2
o2
n3.11
v2
v4
o2
o2
o2
n0.15
v0
v0
v2
o2
o2
o2
n7.87
v0
v1
v1
o2
o2
o2
n9.71
v0
v2
v2
o2
o2
o2
n3.41
v0
v2
v3
o2
o2
o2
n2.12
v0
v3
v3
o2
o2
o2
n7.79
v1
v1
v1
o2
o2
o2
n3.58
v1
v1
v2
o2
o2
o2
n9.94
v1
v1
v3
o2
o2
o2
n2.58
v1
v2
v4
o2
o2
o2
n0.05
v1
v3
v3
o2
o2
o2
n6.11
v1
v3
v4
o2
o2
o2
n8.31
v1
v4
v4
o2
o2
o2
n0.64
v2
v3
v4
o2
o2
o2
n5.97
v3
v3
v3
o2
o2
o2
n4.36
v3
v3
v4
o2
o2
o2
n7.89
v3
v4
v4
o2
o2
o2
n2.18
v4
v4
v4
C2
o54
63
o2
o2
n7.67
v0
v3
o2
o2
n2.91
v1
v4
o16
o2
o2
n3.12
v2
v3
o2
o2
n2.28
v2
v4
o2
o2
o2
n0.7
v0
v0
v2
o2
o2
o2
n3.88
v0
v1
v1
o2
o2
o2
n7.49
v0
v2
v2
o2
o2
o2
n0.7
v0
v2
v3
o2
o2
o2
n3.25
v0
v3
v3
o2
o2
o2
n8.16
v1
v1
v1
o2
o2
o2
n4.42
v1
v1
v2
o2
o2
o2
n2.29
v1
v1
v3
o2
o2
o2
n9.9
v1
v2
v4
o2
o2
o2
n4.93
v1
v3
v3
o2
o2
o2
n0.42
v1
v3
v4
o2
o2
o2
n0.06
v1
v4
v4
o2
o2
o2
n7.88
v2
v3
v4
o2
o2
o2
n0.24
v3
v3
v3
o16
o2
o2
o2
n6.22
v3
v3
v4
o2
o2
o2
n7.42
v3
v4
v4
o2
o2
o2
n0.5
v4
v4
v4
o2
o2
o2
o2
n6.88
v0
v0
v0
v0
o2
o2
o2
o2
n5.68
v0
v0
v0
v1
o2
o2
o2
o2
n8.68
v0
v0
v0
v2
o2
o2
o2
o2
n1.63
v0
v0
v0
v3
o2
o2
o2
o2
n5.49
v0
v0
v1
v4
o2
o2
o2
o2
n6.02
v0
v0
v2
v2
o16
o2
o2
o2
o2
n0.82
v0
v0
v4
v4
o2
o2
o2
o2
n1.58
v0
v1
v1
v1
o2
o2
o2
o2
n6.98
v0
v1
v1
v3
o2
o2
o2
o2
n9.28
v0
v1
v2
v2
o2
o2
o2
o2
n6.47
v0
v1
v2
v4
o2
o2
o2
o2
n4.13
v0
v1
v3
v4
o2
o2
o2
o2
n6.16
v0
v2
v2
v3
o2
o2
o2
o2
n4.95
v0
v2
v3
v3
o2
o2
o2
o2
n8.19
v0
v2
v3
v4
o16
o2
o2
o2
o2
n4.88
v0
v2
v4
v4
o2
o2
o2
o2
n6.6
v0
v3
v3
v3
o2
o2
o2
o2
n4
v0
v3
v4
v4
o2
o2
o2
o2
n3.96
v0
v4
v4
v4
o2
o2
o2
o2
n0.8
v1
v1
v1
v2
o2
o2
o2
o2
n6.76
v1
v1
v1
v3
o2
o2
o2
o2
n3.99
v1
v1
v2
v2
o2
o2
o2
o2
n3.96
v1
v1
v2
v4
o2
o2
o2
o2
n1.08
v1
v1
v3
v3
o2
o2
o2
o2
n7.41
v1
v1
v3
v4
o2
o2
o2
o2
n5.58
v1
v1
v4
v4
o2
o2
o2
o2
n8.56
v1
v2
v2
v2
o2
o2
o2
o2
n9.14
v1
v2
v2
v3
o2
o2
o2
o2
n0.22
v1
v2
v2
v4
o2
o2
o2
o2
n0.22
v1
v2
v3
v3
o2
o2
o2
o2
n7.6
v1
v2
v3
v4
o2
o2
o2
o2
n6.02
v1
v2
v4
v4
o2
o2
o2
o2
n7.67
v1
v3
v4
v4
o2
o2
o2
o2
n9.04
v1
v4
v4
v4
o2
o2
o2
o2
n0.86
v2
v2
v2
v4
o16
o2
o2
o2
o2
n4.91
v2
v2
v3
v3
o2
o2
o2
o2
n4.19
v2
v3
v3
v3
o2
o2
o2
o2
n3.1
v2
v3
v3
v4
o2
o2
o2
o2
n9.86
v2
v3
v4
v4
o2
o2
o2
o2
n6.98
v3
v3
v3
v3
o2
o2
o2
o2
n8.49
v3
v3
v4
v4
o16
o2
o2
o2
o2
n4.84
v3
v4
v4
v4
C3
o54
128
o2
o2
n8.91
v0
v3
o16
o2
o2
n0.03
v1
v4
o2
o2
n5.21
v2
v3
o2
o2
n4.07
v2
v4
o2
o2
o2
n0.9
v0
v0
v2
o2
o2
o2
n5.27
v0
v1
v1
o2
o2
o2
n5.99
v0
v2
v2
o2
o2
o2
n7.03
v0
v2
v3
o2
o2
o2
n0.69
v0
v3
v3
o2
o2
o2
n7.81
v1
v1
v1
o2
o2
o2
n0.36
v1
v1
v2
o2
o2
o2
n8.09
v1
v1
v3
o2
o2
o2
n0.42
v1
v2
v4
o2
o2
o2
n7.47
v1
v3
v3
o2
o2
o2
n2.96
v1
v3
v4
o2
o2
o2
n6.01
v1
v4
v4
o16
o2
o2
o2
n1.37
v2
v3
v4
o2
o2
o2
n8.92
v3
v3
v3
o2
o2
o2
n4.73
v3
v3
v4
o2
o2
o2
n8.55
v3
v4
v4
o2
o2
o2
n8.52
v4
v4
v4
o2
o2
o2
o2
n2.84
v0
v0
v0
v0
o2
o2
o2
o2
n3.05
v0
v0
v0
v1
o2
o2
o2
o2
n4.26
v0
v0
v0
v2
o16
o2
o2
o2
o2
n6.41
v0
v0
v0
v3
o16
o2
o2
o2
o2
n8.28
v0
v0
v1
v4
o2
o2
o2
o2
n3.26
v0
v0
v2
v2
o2
o2
o2
o2
n5.48
v0
v0
v4
v4
o2
o2
o2
o2
n6.21
v0
v1
v1
v1
o16
o2
o2
o2
o2
n6.31
v0
v1
v1
v3
o2
o2
o2
o2
n1.29
v0
v1
v2
v2
o16
o2
o2
o2
o2
n2.61
v0
v1
v2
v4
o2
o2
o2
o2
n3.99
v0
v1
v3
v4
o2
o2
o2
o2
n4.9
v0
v2
v2
v3
o2
o2
o2
o2
n7.63
v0
v2
v3
v3
o2
o2
o2
o2
n9.58
v0
v2
v3
v4
o2
o2
o2
o2
n0.34
v0
v2
v4
v4
o2
o2
o2
o2
n5.03
v0
v3
v3
v3
o2
o2
o2
o2
n2.54
v0
v3
v4
v4
o2
o2
o2
o2
n0.67
v0
v4
v4
v4
o2
o2
o2
o2
n1.18
v1
v1
v1
v2
o2
o2
o2
o2
n8.11
v1
v1
v1
v3
o2
o2
o2
o2
n2.49
v1
v1
v2
v2
o2
o2
o2
o2
n8.44
v1
v1
v2
v4
o2
o2
o2
o2
n9.8
v1
v1
v3
v3
o2
o2
o2
o2
n4.59
v1
v1
v3
v4
o2
o2
o2
o2
n7.83
v1
v1
v4
v4
o2
o2
o2
o2
n3.06
v1
v2
v2
v2
o2
o2
o2
o2
n0.23
v1
v2
v2
v3
o2
o2
o2
o2
n3.84
v1
v2
v2
v4
o2
o2
o2
o2
n1.75
v1
v2
v3
v3
o2
o2
o2
o2
n2.77
v1
v2
v3
v4
o2
o2
o2
o2
n1.76
v1
v2
v4
v4
o16
o2
o2
o2
o2
n5.3
v1
v3
v4
v4
o2
o2
o2
o2
n0.5
v1
v4
v4
v4
o16
o2
o2
o2
o2
n5.68
v2
v2
v2
v4
o2
o2
o2
o2
n4.82
v2
v2
v3
v3
o2
o2
o2
o2
n0.83
v2
v3
v3
v3
o2
o2
o2
o2
n4.8
v2
v3
v3
v4
o16
o2
o2
o2
o2
n2.72
v2
v3
v4
v4
o2
o2
o2
o2
n7.97
v3
v3
v3
v3
o2
o2
o2
o2
n8.41
v3
v3
v4
v4
o2
o2
o2
o2
n2.54
v3
v4
v4
v4
o2
o2
o2
o2
o2
n1.94
v0
v0
v0
v0
v1
o16
o2
o2
o2
o2
o2
n6.31
v0
v0
v0
v0
v2
o16
o2
o2
o2
o2
o2
n6.93
v0
v0
v0
v0
v4
o2
o2
o2
o2
o2
n2.76
v0
v0
v0
v1
v2
o2
o2
o2
o2
o2
n4.03
v0
v0
v0
v1
v3
o2
o2
o2
o2
o2
n0.97
v0
v0
v0
v1
v4
o2
o2
o2
o2
o2
n2.39
v0
v0
v0
v2
v2
o16
o2
o2
o2
o2
o2
n0.79
v0
v0
v0
v2
v3
o2
o2
o2
o2
o2
n9.03
v0
v0
v0
v3
v3
o16
o2
o2
o2
o2
o2
n9.98
v0
v0
v0
v3
v4
o2
o2
o2
o2
o2
n5.28
v0
v0
v1
v1
v3
o2
o2
o2
o2
o2
n4.75
v0
v0
v1
v1
v4
o2
o2
o2
o2
o2
n4.38
v0
v0
v1
v2
v2
o2
o2
o2
o2
o2
n0.34
v0
v0
v1
v2
v3
o2
o2
o2
o2
o2
n9.18
v0
v0
v1
v3
v3
o16
o2
o2
o2
o2
o2
n3.2
v0
v0
v1
v3
v4
o2
o2
o2
o2
o2
n4.15
v0
v0
v2
v3
v4
o2
o2
o2
o2
o2
n1.3
v0
v0
v3
v3
v3
o2
o2
o2
o2
o2
n0.66
v0
v0
v3
v3
v4
o16
o2
o2
o2
o2
o2
n4.12
v0
v0
v3
v4
v4
o2
o2
o2
o2
o2
n9.57
v0
v0
v4
v4
v4
o2
o2
o2
o2
o2
n8.97
v0
v1
v1
v1
v2
o2
o2
o2
o2
o2
n0.4
v0
v1
v1
v1
v4
o2
o2
o2
o2
o2
n5.08
v0
v1
v1
v2
v2
o2
o2
o2
o2
o2
n0.78
v0
v1
v1
v2
v3
o2
o2
o2
o2
o2
n2.13
v0
v1
v1
v2
v4
o2
o2
o2
o2
o2
n5.62
v0
v1
v1
v3
v3
o2
o2
o2
o2
o2
n4.71
v0
v1
v1
v3
v4
o2
o2
o2
o2
o2
n9.81
v0
v1
v2
v2
v2
o16
o2
o2
o2
o2
o2
n9.3
v0
v1
v2
v2
v3
o2
o2
o2
o2
o2
n3.64
v0
v1
v2
v3
v3
o2
o2
o2
o2
o2
n5.37
v0
v1
v3
v3
v3
o2
o2
o2
o2
o2
n4.9
v0
v2
v2
v2
v2
o2
o2
o2
o2
o2
n7.05
v0
v2
v2
v2
v4
o2
o2
o2
o2
o2
n6.84
v0
v2
v2
v3
v3
o2
o2
o2
o2
o2
n7.11
v0
v2
v2
v4
v4
o2
o2
o2
o2
o2
n5.94
v0
v2
v3
v4
v4
o2
o2
o2
o2
o2
n9.58
v0
v3
v3
v4
v4
o2
o2
o2
o2
o2
n8.7
v0
v3
v4
v4
v4
o2
o2
o2
o2
o2
n2.86
v1
v1
v1
v1
v1
o2
o2
o2
o2
o2
n1.28
v1
v1
v1
v1
v3
o16
o2
o2
o2
o2
o2
n9.54
v1
v1
v1
v2
v2
o2
o2
o2
o2
o2
n1.3
v1
v1
v1
v2
v3
o2
o2
o2
o2
o2
n4.88
v1
v1
v1
v2
v4
o16
o2
o2
o2
o2
o2
n5.71
v1
v1
v1
v3
v3
o2
o2
o2
o2
o2
n0.1
v1
v1
v3
v3
v3
o2
o2
o2
o2
o2
n3.84
v1
v1
v4
v4
v4
o2
o2
o2
o2
o2
n2.45
v1
v2
v2
v2
v3
o2
o2
o2
o2
o2
n9.71
v1
v2
v2
v4
v4
o2
o2
o2
o2
o2
n8.26
v1
v2
v3
v4
v4
o2
o2
o2
o2
o2
n2.59
v1
v2
v4
v4
v4
o2
o2
o2
o2
o2
n0.82
v1
v3
v3
v4
v4
o2
o2
o2
o2
o2
n9.99
v2
v2
v2
v2
v2
o2
o2
o2
o2
o2
n9.45
v2
v2
v2
v2
v4
o2
o2
o2
o2
o2
n2
v2
v2
v3
v3
v4
o2
o2
o2
o2
o2
n1.41
v2
v2
v4
v4
v4
o2
o2
o2
o2
o2
n1.22
v2
v3
v3
v3
v3
o2
o2
o2
o2
o2
n3.3
v2
v3
v3
v3
v4
o2
o2
o2
o2
o2
n7.11
v2
v3
v3
v4
v4
o2
o2
o2
o2
o2
n3.24
v2
v3
v4
v4
v4
o16
o2
o2
o2
o2
o2
n9.06
v2
v4
v4
v4
v4
o2
o2
o2
o2
o2
n0.77
v3
v3
v3
v3
v3
o2
o2
o2
o2
o2
n7.12
v3
v3
v3
v4
v4
o2
o2
o2
o2
o2
n5.64
v3
v3
v4
v4
v4
o2
o2
o2
o2
o2
n4.4
v4
v4
v4
v4
v4
C4
n0
C5
n0
O0 0
o54
392
o2
o2
n6
v0
v3
o2
o2
n7.24
v1
v4
o2
o2
n3.11
v2
v3
o2
o2
n3.47
v2
v4
o2
o2
o2
n6.86
v0
v0
v2
o2
o2
o2
n1.6
v0
v1
v1
o2
o2
o2
n7.74
v0
v2
v2
o2
o2
o2
n5.09
v0
v2
v3
o2
o2
o2
n9.17
v0
v3
v3
o2
o2
o2
n5.92
v1
v1
v1
o2
o2
o2
n9.62
v1
v1
v2
o2
o2
o2
n6.14
v1
v1
v3
o2
o2
o2
n9
v1
v2
v4
o2
o2
o2
n7.56
v1
v3
v3
o16
o2
o2
o2
n8.27
v1
v3
v4
o2
o2
o2
n1.13
v1
v4
v4
o2
o2
o2
n6.48
v2
v3
v4
o2
o2
o2
n2.61
v3
v3
v3
o2
o2
o2
n4.21
v3
v3
v4
o2
o2
o2
n6.05
v3
v4
v4
o2
o2
o2
n7.5
v4
v4
v4
o2
o2
o2
o2
n1.7
v0
v0
v0
v0
o2
o2
o2
o2
n1.33
v0
v0
v0
v1
o2
o2
o2
o2
n9.83
v0
v0
v0
v2
o2
o2
o2
o2
n6.74
v0
v0
v0
v3
o2
o2
o2
o2
n7.08
v0
v0
v1
v4
o16
o2
o2
o2
o2
n0.55
v0
v0
v2
v2
o2
o2
o2
o2
n6.98
v0
v0
v4
v4
o2
o2
o2
o2
n1.93
v0
v1
v1
v1
o2
o2
o2
o2
n0.93
v0
v1
v1
v3
o2
o2
o2
o2
n4.67
v0
v1
v2
v2
o2
o2
o2
o2
n1.6
v0
v1
v2
v4
o2
o2
o2
o2
n9.37
v0
v1
v3
v4
o2
o2
o2
o2
n4.93
v0
v2
v2
v3
o2
o2
o2
o2
n4.54
v0
v2
v3
v3
o2
o2
o2
o2
n2.55
v0
v2
v3
v4
o2
o2
o2
o2
n0.67
v0
v2
v4
v4
o2
o2
o2
o2
n1.07
v0
v3
v3
v3
o2
o2
o2
o2
n6.39
v0
v3
v4
v4
o2
o2
o2
o2
n9.87
v0
v4
v4
v4
o16
o2
o2
o2
o2
n0.73
v1
v1
v1
v2
o2
o2
o2
o2
n3.78
v1
v1
v1
v3
o2
o2
o2
o2
n0.52
v1
v1
v2
v2
o2
o2
o2
o2
n2.51
v1
v1
v2
v4
o2
o2
o2
o2
n7.07
v1
v1
v3
v3
o16
o2
o2
o2
o2
n3.14
v1
v1
v3
v4
o16
o2
o2
o2
o2
n1.15
v1
v1
v4
v4
o2
o2
o2
o2
n7.28
v1
v2
v2
v2
o16
o2
o2
o2
o2
n0.28
v1
v2
v2
v3
o2
o2
o2
o2
n9.57
v1
v2
v2
v4
o2
o2
o2
o2
n7.55
v1
v2
v3
v3
o16
o2
o2
o2
o2
n8.99
v1
v2
v3
v4
o2
o2
o2
o2
n5.8
v1
v2
v4
v4
o2
o2
o2
o2
n9.56
v1
v3
v4
v4
o2
o2
o2
o2
n6.45
v1
v4
v4
v4
o2
o2
o2
o2
n1.97
v2
v2
v2
v4
o2
o2
o2
o2
n6.91
v2
v2
v3
v3
o2
o2
o2
o2
n2.79
v2
v3
v3
v3
o2
o2
o2
o2
n5.64
v2
v3
v3
v4
o2
o2
o2
o2
n2.71
v2
v3
v4
v4
o2
o2
o2
o2
n9.01
v3
v3
v3
v3
o2
o2
o2
o2
n0.43
v3
v3
v4
v4
o2
o2
o2
o2
n8.88
v3
v4
v4
v4
o2
o2
o2
o2
o2
n3.82
v0
v0
v0
v0
v1
o2
o2
o2
o2
o2
n5.12
v0
v0
v0
v0
v2
o2
o2
o2
o2
o2
n4.73
v0
v0
v0
v0
v4
o2
o2
o2
o2
o2
n2.01
v0
v0
v0
v1
v2
o16
o2
o2
o2
o2
o2
n9.25
v0
v0
v0
v1
v3
o2
o2
o2
o2
o2
n2.63
v0
v0
v0
v1
v4
o2
o2
o2
o2
o2
n9.8
v0
v0
v0
v2
v2
o2
o2
o2
o2
o2
n0.35
v0
v0
v0
v2
v3
o2
o2
o2
o2
o2
n0.69
v0
v0
v0
v3
v3
o2
o2
o2
o2
o2
n1.33
v0
v0
v0
v3
v4
o16
o2
o2
o2
o2
o2
n3.73
v0
v0
v1
v1
v3
o2
o2
o2
o2
o2
n7.33
v0
v0
v1
v1
v4
o2
o2
o2
o2
o2
n5.32
v0
v0
v1
v2
v2
o2
o2
o2
o2
o2
n2.63
v0
v0
v1
v2
v3
o16
o2
o2
o2
o2
o2
n1.86
v0
v0
v1
v3
v3
o2
o2
o2
o2
o2
n4.36
v0
v0
v1
v3
v4
o2
o2
o2
o2
o2
n4.7
v0
v0
v2
v3
v4
o2
o2
o2
o2
o2
n0.1
v0
v0
v3
v3
v3
o2
o2
o2
o2
o2
n1.42
v0
v0
v3
v3
v4
o2
o2
o2
o2
o2
n1.98
v0
v0
v3
v4
v4
o2
o2
o2
o2
o2
n4.99
v0
v0
v4
v4
v4
o2
o2
o2
o2
o2
n1.22
v0
v1
v1
v1
v2
o2
o2
o2
o2
o2
n7.26
v0
v1
v1
v1
v4
o2
o2
o2
o2
o2
n2.24
v0
v1
v1
v2
v2
o2
o2
o2
o2
o2
n8.42
v0
v1
v1
v2
v3
o16
o2
o2
o2
o2
o2
n0.38
v0
v1
v1
v2
v4
o2
o2
o2
o2
o2
n9
v0
v1
v1
v3
v3
o2
o2
o2
o2
o2
n2.31
v0
v1
v1
v3
v4
o2
o2
o2
o2
o2
n5.94
v0
v1
v2
v2
v2
o2
o2
o2
o2
o2
n3.15
v0
v1
v2
v2
v3
o2
o2
o2
o2
o2
n9.3
v0
v1
v2
v3
v3
o2
o2
o2
o2
o2
n9.4
v0
v1
v3
v3
v3
o2
o2
o2
o2
o2
n1.19
v0
v2
v2
v2
v2
o2
o2
o2
o2
o2
n1.77
v0
v2
v2
v2
v4
o2
o2
o2
o2
o2
n3.46
v0
v2
v2
v3
v3
o2
o2
o2
o2
o2
n6.86
v0
v2
v2
v4
v4
o2
o2
o2
o2
o2
n5.71
v0
v2
v3
v4
v4
o2
o2
o2
o2
o2
n1.92
v0
v3
v3
v4
v4
o2
o2
o2
o2
o2
n0.22
v0
v3
v4
v4
v4
o2
o2
o2
o2
o2
n1.59
v1
v1
v1
v1
v1
o2
o2
o2
o2
o2
n5.33
v1
v1
v1
v1
v3
o2
o2
o2
o2
o2
n0.75
v1
v1
v1
v2
v2
o2
o2
o2
o2
o2
n3.84
v1
v1
v1
v2
v3
o2
o2
o2
o2
o2
n2.64
v1
v1
v1
v2
v4
o2
o2
o2
o2
o2
n7.95
v1
v1
v1
v3
v3
o2
o2
o2
o2
o2
n6.08
v1
v1
v3
v3
v3
o2
o2
o2
o2
o2
n7.42
v1
v1
v4
v4
v4
o2
o2
o2
o2
o2
n1.12
v1
v2
v2
v2
v3
o2
o2
o2
o2
o2
n2.4
v1
v2
v2
v4
v4
o16
o2
o2
o2
o2
o2
n6.96
v1
v2
v3
v4
v4
o2
o2
o2
o2
o2
n7.48
v1
v2
v4
v4
v4
o2
o2
o2
o2
o2
n1.35
v1
v3
v3
v4
v4
o2
o2
o2
o2
o2
n8.69
v2
v2
v2
v2
v2
o16
o2
o2
o2
o2
o2
n5.42
v2
v2
v2
v2
v4
o2
o2
o2
o2
o2
n9.76
v2
v2
v3
v3
v4
o2
o2
o2
o2
o2
n3.17
v2
v2
v4
v4
v4
o2
o2
o2
o2
o2
n9.43
v2
v3
v3
v3
v3
o2
o2
o2
o2
o2
n9.44
v2
v3
v3
v3
v4
o2
o2
o2
o2
o2
n6.28
v2
v3
v3
v4
v4
o2
o2
o2
o2
o2
n5.66
v2
v3
v4
v4
v4
o2
o2
o2
o2
o2
n2.55
v2
v4
v4
v4
v4
o2
o2
o2
o2
o2
n7.26
v3
v3
v3
v3
v3
o2
o2
o2
o2
o2
n3.72
v3
v3
v3
v4
v4
o2
o2
o2
o2
o2
n1.96
v3
v3
v4
v4
v4
o2
o2
o2
o2
o2
n5.22
v4
v4
v4
v4
v4
o2
o2
o2
o2
o2
o2
n2.86
v0
v0
v0
v0
v0
v0
o2
o2
o2
o2
o2
o2
n2.93
v0
v0
v0
v0
v0
v1
o2
o2
o2
o2
o2
o2
n5.45
v0
v0
v0
v0
v2
v2
o2
o2
o2
o2
o2
o2
n9.05
v0
v0
v0
v0
v2
v4
o2
o2
o2
o2
o2
o2
n2.7
v0
v0
v0
v0
v3
v3
o2
o2
o2
o2
o2
o2
n9.77
v0
v0
v0
v0
v4
v4
o2
o2
o2
o2
o2
o2
n7.08
v0
v0
v0
v1
v1
v1
o2
o2
o2
o2
o2
o2
n6.53
v0
v0
v0
v1
v2
v3
o2
o2
o2
o2
o2
o2
n3.77
v0
v0
v0
v1
v2
v4
o2
o2
o2
o2
o2
o2
n7.18
v0
v0
v0
v1
v3
v3
o2
o2
o2
o2
o2
o2
n4.05
v0
v0
v0
v1
v3
v4
o2
o2
o2
o2
o2
o2
n8.77
v0
v0
v0
v2
v2
v2
o2
o2
o2
o2
o2
o2
n2.84
v0
v0
v0
v2
v2
v4
o2
o2
o2
o2
o2
o2
n8.51
v0
v0
v0
v2
v3
v4
o2
o2
o2
o2
o2
o2
n9.67
v0
v0
v0
v2
v4
v4
o16
o2
o2
o2
o2
o2
o2
n4.38
v0
v0
v1
v1
v1
v2
o2
o2
o2
o2
o2
o2
n6.91
v0
v0
v1
v1
v1
v4
o2
o2
o2
o2
o2
o2
n2.07
v0
v0
v1
v1
v2
v2
o2
o2
o2
o2
o2
o2
n4.49
v0
v0
v1
v1
v3
v3
o2
o2
o2
o2
o2
o2
n9.71
v0
v0
v1
v1
v4
v4
o2
o2
o2
o2
o2
o2
n5.06
v0
v0
v1
v2
v2
v3
o2
o2
o2
o2
o2
o2
n6.98
v0
v0
v1
v2
v2
v4
o2
o2
o2
o2
o2
o2
n8.72
v0
v0
v1
v2
v3
v3
o2
o2
o2
o2
o2
o2
n0.26
v0
v0
v1
v2
v4
v4
o2
o2
o2
o2
o2
o2
n1.38
v0
v0
v2
v2
v2
v2
o2
o2
o2
o2
o2
o2
n0.2
v0
v0
v2
v2
v2
v3
o2
o2
o2
o2
o2
o2
n5.78
v0
v0
v2
v2
v3
v4
o2
o2
o2
o2
o2
o2
n3.43
v0
v0
v2
v2
v4
v4
o2
o2
o2
o2
o2
o2
n9.26
v0
v0
v3
v3
v3
v3
o16
o2
o2
o2
o2
o2
o2
n4.9
v0
v0
v3
v3
v4
v4
o2
o2
o2
o2
o2
o2
n7.29
v0
v0
v3
v4
v4
v4
o16
o2
o2
o2
o2
o2
o2
n2.41
v0
v1
v1
v1
v2
v2
o2
o2
o2
o2
o2
o2
n6.92
v0
v1
v1
v1
v3
v3
o2
o2
o2
o2
o2
o2
n9.97
v0
v1
v1
v1
v3
v4
o2
o2
o2
o2
o2
o2
n9.12
v0
v1
v1
v1
v4
v4
o16
o2
o2
o2
o2
o2
o2
n1.4
v0
v1
v1
v2
v2
v2
o2
o2
o2
o2
o2
o2
n4.12
v0
v1
v1
v2
v2
v3
o2
o2
o2
o2
o2
o2
n0.9
v0
v1
v1
v2
v3
v3
o2
o2
o2
o2
o2
o2
n8.8
v0
v1
v1
v3
v3
v3
o2
o2
o2
o2
o2
o2
n2.05
v0
v1
v1
v3
v3
v4
o2
o2
o2
o2
o2
o2
n0.19
v0
v1
v1
v3
v4
v4
o2
o2
o2
o2
o2
o2
n1.82
v0
v1
v1
v4
v4
v4
o2
o2
o2
o2
o2
o2
n4.16
v0
v1
v2
v2
v2
v3
o2
o2
o2
o2
o2
o2
n1.17
v0
v1
v2
v2
v3
v3
o2
o2
o2
o2
o2
o2
n3.31
v0
v1
v2
v2
v3
v4
o2
o2
o2
o2
o2
o2
n8.82
v0
v1
v2
v3
v3
v3
o2
o2
o2
o2
o2
o2
n3.21
v0
v1
v2
v3
v3
v4
o2
o2
o2
o2
o2
o2
n9.65
v0
v1
v2
v4
v4
v4
o2
o2
o2
o2
o2
o2
n0.98
v0
v1
v3
v3
v3
v3
o2
o2
o2
o2
o2
o2
n4.51
v0
v1
v3
v3
v3
v4
o2
o2
o2
o2
o2
o2
n5.27
v0
v1
v4
v4
v4
v4
o2
o2
o2
o2
o2
o2
n2.68
v0
v2
v2
v2
v2
v3
o2
o2
o2
o2
o2
o2
n1.8
v0
v2
v2
v2
v3
v4
o2
o2
o2
o2
o2
o2
n3.88
v0
v2
v2
v2
v4
v4
o2
o2
o2
o2
o2
o2
n3.35
v0
v2
v2
v3
v3
v4
o2
o2
o2
o2
o2
o2
n1.16
v0
v2
v2
v3
v4
v4
o2
o2
o2
o2
o2
o2
n8.47
v0
v2
v2
v4
v4
v4
o2
o2
o2
o2
o2
o2
n1.33
v0
v2
v3
v3
v3
v3
o2
o2
o2
o2
o2
o2
n7.78
v0
v2
v4
v4
v4
v4
o2
o2
o2
o2
o2
o2
n4.45
v0
v3
v3
v3
v3
v3
o2
o2
o2
o2
o2
o2
n2.06
v0
v3
v3
v3
v3
v4
o2
o2
o2
o2
o2
o2
n9.01
v0
v3
v3
v4
v4
v4
o2
o2
o2
o2
o2
o2
n1.11
v1
v1
v1
v1
v1
v2
o2
o2
o2
o2
o2
o2
n4.27
v1
v1
v1
v1
v1
v3
o2
o2
o2
o2
o2
o2
n7.5
v1
v1
v1
v1
v2
v2
o2
o2
o2
o2
o2
o2
n6.38
v1
v1
v1
v1
v2
v3
o2
o2
o2
o2
o2
o2
n4.22
v1
v1
v1
v1
v3
v3
o2
o2
o2
o2
o2
o2
n9.9
v1
v1
v1
v1
v4
v4
o2
o2
o2
o2
o2
o2
n0.34
v1
v1
v1
v2
v2
v2
o2
o2
o2
o2
o2
o2
n1.05
v1
v1
v1
v2
v2
v3
o2
o2
o2
o2
o2
o2
n3.71
v1
v1
v1
v2
v3
v3
o2
o2
o2
o2
o2
o2
n4.65
v1
v1
v1
v3
v3
v3
o2
o2
o2
o2
o2
o2
n4.78
v1
v1
v1
v3
v3
v4
o2
o2
o2
o2
o2
o2
n0.83
v1
v1
v1
v3
v4
v4
o2
o2
o2
o2
o2
o2
n0.57
v1
v1
v2
v2
v4
v4
o16
o2
o2
o2
o2
o2
o2
n3.53
v1
v1
v3
v3
v3
v3
o2
o2
o2
o2
o2
o2
n2.91
v1
v1
v3
v3
v4
v4
o2
o2
o2
o2
o2
o2
n7.03
v1
v1
v3
v4
v4
v4
o16
o2
o2
o2
o2
o2
o2
n9.98
v1
v1
v4
v4
v4
v4
o2
o2
o2
o2
o2
o2
n2.22
v1
v2
v2
v2
v2
v2
o2
o2
o2
o2
o2
o2
n5.2
v1
v2
v2
v2
v2
v4
o2
o2
o2
o2
o2
o2
n9.11
v1
v2
v2
v2
v3
v3
o16
o2
o2
o2
o2
o2
o2
n2.53
v1
v2
v2
v2
v4
v4
o2
o2
o2
o2
o2
o2
n7.23
v1
v2
v2
v3
v3
v4
o2
o2
o2
o2
o2
o2
n2.29
v1
v2
v2
v4
v4
v4
o2
o2
o2
o2
o2
o2
n0.39
v1
v2
v3
v3
v3
v4
o2
o2
o2
o2
o2
o2
n6.54
v1
v2
v3
v3
v4
v4
o2
o2
o2
o2
o2
o2
n7.38
v1
v2
v3
v4
v4
v4
o2
o2
o2
o2
o2
o2
n8.01
v1
v3
v3
v3
v4
v4
o2
o2
o2
o2
o2
o2
n5.23
v1
v3
v3
v4
v4
v4
o2
o2
o2
o2
o2
o2
n1.75
v1
v4
v4
v4
v4
v4
o2
o2
o2
o2
o2
o2
n6.49
v2
v2
v2
v2
v3
v3
o2
o2
o2
o2
o2
o2
n3.56
v2
v2
v2
v2
v4
v4
o2
o2
o2
o2
o2
o2
n7.25
v2
v2
v2
v3
v3
v4
o2
o2
o2
o2
o2
o2
n4.13
v2
v2
v2
v4
v4
v4
o2
o2
o2
o2
o2
o2
n7.29
v2
v2
v3
v3
v3
v3
o2
o2
o2
o2
o2
o2
n3.12
v2
v2
v3
v3
v3
v4
o2
o2
o2
o2
o2
o2
n8.99
v2
v3
v3
v3
v3
v3
o2
o2
o2
o2
o2
o2
n2.09
v2
v3
v3
v3
v4
v4
o16
o2
o2
o2
o2
o2
o2
n6.66
v2
v3
v3
v4
v4
v4
o2
o2
o2
o2
o2
o2
n0.53
v2
v3
v4
v4
v4
v4
o16
o2
o2
o2
o2
o2
o2
n2.66
v2
v4
v4
v4
v4
v4
o16
o2
o2
o2
o2
o2
o2
n3.8
v3
v3
v3
v3
v4
v4
o2
o2
o2
o2
o2
o2
n2.06
v3
v3
v3
v4
v4
v4
o2
o2
o2
o2
o2
o2
n7.33
v3
v3
v4
v4
v4
v4
o2
o2
o2
o2
o2
o2
n2.26
v3
v4
v4
v4
v4
v4
o2
o2
o2
o2
o2
o2
o2
n5.87
v0
v0
v0
v0
v0
v1
v1
o2
o2
o2
o2
o2
o2
o2
n9.22
v0
v0
v0
v0
v0
v1
v2
o2
o2
o2
o2
o2
o2
o2
n2.04
v0
v0
v0
v0
v0
v1
v3
o2
o2
o2
o2
o2
o2
o2
n6.85
v0
v0
v0
v0
v0
v1
v4
o2
o2
o2
o2
o2
o2
o2
n3.19
v0
v0
v0
v0
v0
v3
v4
o2
o2
o2
o2
o2
o2
o2
n1.07
v0
v0
v0
v0
v0
v4
v4
o2
o2
o2
o2
o2
o2
o2
n0.6
v0
v0
v0
v0
v1
v1
v1
o16
o2
o2
o2
o2
o2
o2
o2
n5.18
v0
v0
v0
v0
v1
v1
v4
o2
o2
o2
o2
o2
o2
o2
n0.11
v0
v0
v0
v0
v1
v2
v3
o2
o2
o2
o2
o2
o2
o2
n7.99
v0
v0
v0
v0
v1
v3
v4
o2
o2
o2
o2
o2
o2
o2
n8.21
v0
v0
v0
v0
v1
v4
v4
o2
o2
o2
o2
o2
o2
o2
n1.46
v0
v0
v0
v0
v2
v2
v2
o2
o2
o2
o2
o2
o2
o2
n2.77
v0
v0
v0
v0
v2
v2
v3
o2
o2
o2
o2
o2
o2
o2
n9.18
v0
v0
v0
v0
v3
v3
v4
o2
o2
o2
o2
o2
o2
o2
n2.27
v0
v0
v0
v0
v3
v4
v4
o2
o2
o2
o2
o2
o2
o2
n2.46
v0
v0
v0
v0
v4
v4
v4
o2
o2
o2
o2
o2
o2
o2
n2.78
v0
v0
v0
v1
v1
v1
v2
o2
o2
o2
o2
o2
o2
o2
n5.42
v0
v0
v0
v1
v1
v2
v3
o2
o2
o2
o2
o2
o2
o2
n6.68
v0
v0
v0
v1
v1
v3
v3
o2
o2
o2
o2
o2
o2
o2
n5.82
v0
v0
v0
v1
v1
v3
v4
o2
o2
o2
o2
o2
o2
o2
n2.09
v0
v0
v0
v1
v1
v4
v4
o2
o2
o2
o2
o2
o2
o2
n2.98
v0
v0
v0
v1
v2
v2
v3
o2
o2
o2
o2
o2
o2
o2
n7.32
v0
v0
v0
v1
v2
v3
v3
o2
o2
o2
o2
o2
o2
o2
n9.61
v0
v0
v0
v1
v2
v4
v4
o2
o2
o2
o2
o2
o2
o2
n9.09
v0
v0
v0
v1
v3
v3
v3
o2
o2
o2
o2
o2
o2
o2
n8.83
v0
v0
v0
v2
v2
v2
v2
o2
o2
o2
o2
o2
o2
o2
n8.84
v0
v0
v0
v2
v2
v2
v4
o2
o2
o2
o2
o2
o2
o2
n3.18
v0
v0
v0
v2
v2
v3
v3
o2
o2
o2
o2
o2
o2
o2
n6.04
v0
v0
v0
v2
v2
v4
v4
o2
o2
o2
o2
o2
o2
o2
n7.06
v0
v0
v0
v2
v3
v4
v4
o2
o2
o2
o2
o2
o2
o2
n2.63
v0
v0
v0
v2
v4
v4
v4
o2
o2
o2
o2
o2
o2
o2
n9.19
v0
v0
v1
v1
v1
v1
v1
o2
o2
o2
o2
o2
o2
o2
n7.66
v0
v0
v1
v1
v1
v1
v3
o2
o2
o2
o2
o2
o2
o2
n6.62
v0
v0
v1
v1
v1
v1
v4
o2
o2
o2
o2
o2
o2
o2
n6.12
v0
v0
v1
v1
v1
v2
v4
o16
o2
o2
o2
o2
o2
o2
o2
n6.96
v0
v0
v1
v1
v2
v2
v3
o2
o2
o2
o2
o2
o2
o2
n1.07
v0
v0
v1
v1
v2
v3
v3
o2
o2
o2
o2
o2
o2
o2
n0.23
v0
v0
v1
v1
v2
v3
v4
o16
o2
o2
o2
o2
o2
o2
o2
n3.23
v0
v0
v1
v1
v3
v3
v4
o16
o2
o2
o2
o2
o2
o2
o2
n7.05
v0
v0
v1
v1
v3
v4
v4
o2
o2
o2
o2
o2
o2
o2
n6.86
v0
v0
v1
v1
v4
v4
v4
o2
o2
o2
o2
o2
o2
o2
n4.59
v0
v0
v1
v2
v2
v3
v4
o2
o2
o2
o2
o2
o2
o2
n6.21
v0
v0
v1
v2
v2
v4
v4
o2
o2
o2
o2
o2
o2
o2
n7.03
v0
v0
v1
v2
v3
v4
v4
o16
o2
o2
o2
o2
o2
o2
o2
n1.5
v0
v0
v1
v3
v3
v3
v4
o2
o2
o2
o2
o2
o2
o2
n1.81
v0
v0
v1
v4
v4
v4
v4
o2
o2
o2
o2
o2
o2
o2
n8.55
v0
v0
v2
v2
v2
v2
v4
o2
o2
o2
o2
o2
o2
o2
n8.6
v0
v0
v2
v2
v2
v3
v3
o2
o2
o2
o2
o2
o2
o2
n0.99
v0
v0
v2
v2
v2
v4
v4
o2
o2
o2
o2
o2
o2
o2
n2.14
v0
v0
v2
v2
v3
v4
v4
o2
o2
o2
o2
o2
o2
o2
n9.32
v0
v0
v2
v3
v3
v3
v4
o2
o2
o2
o2
o2
o2
o2
n5.9
v0
v0
v2
v4
v4
v4
v4
o2
o2
o2
o2
o2
o2
o2
n5.7
v0
v0
v3
v3
v3
v3
v3
o2
o2
o2
o2
o2
o2
o2
n7.85
v0
v0
v3
v3
v3
v3
v4
o2
o2
o2
o2
o2
o2
o2
n8.64
v0
v0
v3
v3
v3
v4
v4
o2
o2
o2
o2
o2
o2
o2
n5.05
v0
v0
v3
v3
v4
v4
v4
o2
o2
o2
o2
o2
o2
o2
n6.56
v0
v1
v1
v1
v1
v1
v1
o2
o2
o2
o2
o2
o2
o2
n8.52
v0
v1
v1
v1
v1
v1
v2
o16
o2
o2
o2
o2
o2
o2
o2
n4.43
v0
v1
v1
v1
v1
v1
v3
o2
o2
o2
o2
o2
o2
o2
n5.03
v0
v1
v1
v1
v1
v1
v4
o2
o2
o2
o2
o2
o2
o2
n2.39
v0
v1
v1
v1
v1
v2
v2
o2
o2
o2
o2
o2
o2
o2
n7.39
v0
v1
v1
v1
v1
v2
v3
o2
o2
o2
o2
o2
o2
o2
n0.46
v0
v1
v1
v1
v1
v3
v3
o16
o2
o2
o2
o2
o2
o2
o2
n9.68
v0
v1
v1
v1
v1
v3
v4
o2
o2
o2
o2
o2
o2
o2
n8.55
v0
v1
v1
v1
v1
v4
v4
o2
o2
o2
o2
o2
o2
o2
n9.11
v0
v1
v1
v1
v2
v2
v4
o2
o2
o2
o2
o2
o2
o2
n5.55
v0
v1
v1
v1
v2
v3
v3
o2
o2
o2
o2
o2
o2
o2
n1.06
v0
v1
v1
v1
v2
v4
v4
o2
o2
o2
o2
o2
o2
o2
n6.85
v0
v1
v1
v1
v3
v3
v4
o2
o2
o2
o2
o2
o2
o2
n8.69
v0
v1
v1
v1
v4
v4
v4
o2
o2
o2
o2
o2
o2
o2
n4.12
v0
v1
v1
v2
v2
v3
v4
o2
o2
o2
o2
o2
o2
o2
n4.02
v0
v1
v1
v2
v3
v4
v4
o2
o2
o2
o2
o2
o2
o2
n6.64
v0
v1
v1
v2
v4
v4
v4
o2
o2
o2
o2
o2
o2
o2
n1.66
v0
v1
v1
v3
v3
v3
v3
o2
o2
o2
o2
o2
o2
o2
n7.94
v0
v1
v1
v3
v3
v3
v4
o2
o2
o2
o2
o2
o2
o2
n2.03
v0
v1
v2
v2
v2
v2
v2
o2
o2
o2
o2
o2
o2
o2
n7.21
v0
v1
v2
v2
v2
v2
v4
o2
o2
o2
o2
o2
o2
o2
n5.53
v0
v1
v2
v2
v2
v3
v3
o2
o2
o2
o2
o2
o2
o2
n9.13
v0
v1
v2
v2
v2
v3
v4
o2
o2
o2
o2
o2
o2
o2
n4.21
v0
v1
v2
v2
v2
v4
v4
o2
o2
o2
o2
o2
o2
o2
n1.45
v0
v1
v2
v3
v3
v3
v3
o2
o2
o2
o2
o2
o2
o2
n2.51
v0
v1
v2
v3
v3
v3
v4
o16
o2
o2
o2
o2
o2
o2
o2
n4.4
v0
v1
v2
v3
v4
v4
v4
o2
o2
o2
o2
o2
o2
o2
n3.68
v0
v1
v2
v4
v4
v4
v4
o2
o2
o2
o2
o2
o2
o2
n0.69
v0
v1
v3
v3
v3
v3
v3
o2
o2
o2
o2
o2
o2
o2
n3.4
v0
v1
v3
v3
v4
v4
v4
o2
o2
o2
o2
o2
o2
o2
n0.61
v0
v1
v3
v4
v4
v4
v4
o2
o2
o2
o2
o2
o2
o2
n7.14
v0
v2
v2
v2
v2
v2
v3
o2
o2
o2
o2
o2
o2
o2
n0.85
v0
v2
v2
v2
v2
v2
v4
o2
o2
o2
o2
o2
o2
o2
n2.87
v0
v2
v2
v2
v2
v4
v4
o2
o2
o2
o2
o2
o2
o2
n1.47
v0
v2
v2
v2
v4
v4
v4
o2
o2
o2
o2
o2
o2
o2
n5.67
v0
v2
v2
v3
v3
v3
v3
o16
o2
o2
o2
o2
o2
o2
o2
n9.83
v0
v2
v2
v3
v3
v3
v4
o2
o2
o2
o2
o2
o2
o2
n5.8
v0
v2
v2
v3
v4
v4
v4
o2
o2
o2
o2
o2
o2
o2
n5.61
v0
v2
v3
v3
v3
v4
v4
o2
o2
o2
o2
o2
o2
o2
n6.79
v0
v3
v3
v3
v4
v4
v4
o2
o2
o2
o2
o2
o2
o2
n6.12
v0
v3
v3
v4
v4
v4
v4
o2
o2
o2
o2
o2
o2
o2
n5.08
v0
v3
v4
v4
v4
v4
v4
o2
o2
o2
o2
o2
o2
o2
n5.75
v0
v4
v4
v4
v4
v4
v4
o2
o2
o2
o2
o2
o2
o2
n7.83
v1
v1
v1
v1
v1
v1
v1
o2
o2
o2
o2
o2
o2
o2
n8.73
v1
v1
v1
v1
v1
v2
v3
o2
o2
o2
o2
o2
o2
o2
n0.46
v1
v1
v1
v1
v1
v2
v4
o2
o2
o2
o2
o2
o2
o2
n9.31
v1
v1
v1
v1
v1
v3
v4
o2
o2
o2
o2
o2
o2
o2
n0.43
v1
v1
v1
v1
v2
v2
v3
o2
o2
o2
o2
o2
o2
o2
n8.28
v1
v1
v1
v1
v2
v3
v3
o2
o2
o2
o2
o2
o2
o2
n8.82
v1
v1
v1
v1
v2
v3
v4
o2
o2
o2
o2
o2
o2
o2
n0.08
v1
v1
v1
v1
v2
v4
v4
o2
o2
o2
o2
o2
o2
o2
n6.41
v1
v1
v1
v1
v3
v3
v3
o2
o2
o2
o2
o2
o2
o2
n9.37
v1
v1
v1
v1
v3
v4
v4
o2
o2
o2
o2
o2
o2
o2
n5.59
v1
v1
v1
v1
v4
v4
v4
o2
o2
o2
o2
o2
o2
o2
n1.29
v1
v1
v1
v2
v2
v2
v4
o2
o2
o2
o2
o2
o2
o2
n4.85
v1
v1
v1
v2
v2
v3
v4
o2
o2
o2
o2
o2
o2
o2
n4.28
v1
v1
v1
v2
v2
v4
v4
o2
o2
o2
o2
o2
o2
o2
n7.41
v1
v1
v1
v2
v4
v4
v4
o16
o2
o2
o2
o2
o2
o2
o2
n9.82
v1
v1
v1
v3
v3
v3
v3
o2
o2
o2
o2
o2
o2
o2
n0.36
v1
v1
v1
v3
v3
v3
v4
o2
o2
o2
o2
o2
o2
o2
n7.78
v1
v1
v1
v3
v3
v4
v4
o2
o2
o2
o2
o2
o2
o2
n6.14
v1
v1
v1
v4
v4
v4
v4
o2
o2
o2
o2
o2
o2
o2
n1.76
v1
v1
v2
v2
v2
v3
v3
o2
o2
o2
o2
o2
o2
o2
n2.69
v1
v1
v2
v2
v2
v3
v4
o2
o2
o2
o2
o2
o2
o2
n3.31
v1
v1
v2
v2
v3
v3
v3
o2
o2
o2
o2
o2
o2
o2
n4.01
v1
v1
v2
v2
v3
v4
v4
o16
o2
o2
o2
o2
o2
o2
o2
n9.12
v1
v1
v2
v2
v4
v4
v4
o2
o2
o2
o2
o2
o2
o2
n7.53
v1
v1
v2
v3
v3
v3
v3
o2
o2
o2
o2
o2
o2
o2
n0.33
v1
v1
v2
v3
v3
v3
v4
o2
o2
o2
o2
o2
o2
o2
n0.06
v1
v1
v2
v3
v3
v4
v4
o2
o2
o2
o2
o2
o2
o2
n7.85
v1
v1
v2
v3
v4
v4
v4
o2
o2
o2
o2
o2
o2
o2
n8.61
v1
v1
v2
v4
v4
v4
v4
o2
o2
o2
o2
o2
o2
o2
n2.98
v1
v1
v3
v3
v3
v3
v4
o2
o2
o2
o2
o2
o2
o2
n7.89
v1
v1
v3
v4
v4
v4
v4
o2
o2
o2
o2
o2
o2
o2
n7.13
v1
v2
v2
v2
v2
v4
v4
o2
o2
o2
o2
o2
o2
o2
n0.97
v1
v2
v2
v2
v4
v4
v4
o2
o2
o2
o2
o2
o2
o2
n9.96
v1
v2
v2
v3
v3
v3
v3
o2
o2
o2
o2
o2
o2
o2
n4.54
v1
v2
v3
v3
v3
v3
v3
o2
o2
o2
o2
o2
o2
o2
n9.82
v1
v2
v3
v3
v4
v4
v4
o2
o2
o2
o2
o2
o2
o2
n5.57
v1
v2
v4
v4
v4
v4
v4
o2
o2
o2
o2
o2
o2
o2
n5.64
v1
v3
v3
v3
v3
v3
v3
o16
o2
o2
o2
o2
o2
o2
o2
n0.71
v1
v3
v3
v3
v3
v3
v4
o2
o2
o2
o2
o2
o2
o2
n4.27
v1
v3
v3
v3
v3
v4
v4
o2
o2
o2
o2
o2
o2
o2
n5.12
v1
v3
v3
v4
v4
v4
v4
o2
o2
o2
o2
o2
o2
o2
n2.46
v1
v4
v4
v4
v4
v4
v4
o2
o2
o2
o2
o2
o2
o2
n2.23
v2
v2
v2
v2
v2
v2
v3
o2
o2
o2
o2
o2
o2
o2
n7.32
v2
v2
v2
v2
v2
v3
v4
o2
o2
o2
o2
o2
o2
o2
n1.1
v2
v2
v2
v2
v2
v4
v4
o2
o2
o2
o2
o2
o2
o2
n4.57
v2
v2
v2
v2
v3
v3
v4
o2
o2
o2
o2
o2
o2
o2
n2.73
v2
v2
v2
v3
v3
v3
v3
o2
o2
o2
o2
o2
o2
o2
n8.5
v2
v2
v2
v3
v3
v3
v4
o2
o2
o2
o2
o2
o2
o2
n2.13
v2
v2
v2
v3
v4
v4
v4
o2
o2
o2
o2
o2
o2
o2
n2.7
v2
v2
v2
v4
v4
v4
v4
o2
o2
o2
o2
o2
o2
o2
n7.56
v2
v2
v4
v4
v4
v4
v4
o2
o2
o2
o2
o2
o2
o2
n5.64
v2
v3
v3
v3
v3
v3
v4
o2
o2
o2
o2
o2
o2
o2
n3.51
v2
v3
v3
v3
v4
v4
v4
o2
o2
o2
o2
o2
o2
o2
n0.28
v2
v3
v4
v4
v4
v4
v4
o2
o2
o2
o2
o2
o2
o2
n9.06
v2
v4
v4
v4
v4
v4
v4
o2
o2
o2
o2
o2
o2
o2
n1.53
v3
v3
v3
v3
v3
v3
v3
o2
o2
o2
o2
o2
o2
o2
n8.07
v3
v3
v3
v3
v4
v4
v4
o2
o2
o2
o2
o2
o2
o2
n0.86
v3
v3
v3
v4
v4
v4
v4
o2
o2
o2
o2
o2
o2
o2
n2.92
v3
v4
v4
v4
v4
v4
v4
k4
6
11
16
22
J0 5
0 3.78
1 7.56
2 6.96
3 -7.19
4 8.09
J1 5
0 2.41
1 9.34
2 8.35
3 0.18
4 6.15
J2 5
0 -0.49
1 0.26
2 4.29
3 1.33
4 5.12
J3 5
0 0.83
1 8.45
2 -7.27
3 0.72
4 8.99
J4 2
0 3.08
3 5.93
J5 5
0 5.09
1 9.16
2 -8.74
3 4.93
4 1.7
G0 5
0 7.87
1 4.01
2 9.6
3 6.07
4 8.03
